%mem=1000MB
%chk=LiuKun1.chk
# pm3

T1

0 1
H 0.000000    0.000000    0.000000 
N 0.000000    0.000000    1.080000 
C 1.429020    0.000000    1.535961 
O 2.070793    0.343650    2.731801 

