%mem=1000mb
%chk=LiuKun1.chk LiuKun2.chk
{#p sto-3g scf=maxcycle=999} method=b3lyp:HF td=(root=0:root=1,nstates=5) cmd=g16 convergence=normal task=mecp MECP=ln hessianN=1 stepSize=1
 
T1
 
0 1 3
 H                  0.00000000    0.00000000    0.00000000
 N                  0.00000000    0.00000000    1.08000000
 C                  1.42902044    0.00000000    1.53596115
 O                  2.05255959   -0.03506582    2.78894532
 
