%mem=1000MB
%chk=LiuKun1.chk
#p pm3

T1

2 1
 C              
 C                  1            B1
 C                  1            B2    2            A1
 N                  1            B3    2            A2    3            D1    0
 H                  1            B4    4            A3    3            D2    0
 H                  2            B5    1            A4    4            D3    0
 H                  3            B6    1            A5    4            D4    0
 C                  3            B7    1            A6    4            D5    0
 H                  8            B8    3            A7    1            D6    0
 H                  8            B9    3            A8    1            D7    0
 C                  8           B10    3            A9    1            D8    0
 H                 11           B11    8           A10    3            D9    0
 H                 11           B12    8           A11    3           D10    0
 N                 11           B13    8           A12    3           D11    0
 C                 14           B14   11           A13    8           D12    0
 C                 14           B15   11           A14    8           D13    0
 C                 15           B16   14           A15   11           D14    0
 H                 15           B17   14           A16   11           D15    0
 H                 16           B18   14           A17   11           D16    0
 H                 17           B19   15           A18   14           D17    0
 N                  3           B20    1           A19    4           D18    0
 N                 16           B21   14           A20   11           D19    0
 C                  4           B22    1           A21    2           D20    0
 H                 23           B23    4           A22    1           D21    0
 H                 23           B24    4           A23    1           D22    0
 H                 23           B25    4           A24    1           D23    0
 C                 22           B26   16           A25   14           D24    0
 H                 27           B27   22           A26   16           D25    0
 H                 27           B28   22           A27   16           D26    0
 H                 27           B29   22           A28   16           D27    0

   B1             1.40175000
   B2             2.26328708
   B3             1.39179783
   B4             1.08926717
   B5             1.08481903
   B6             1.08923173
   B7             2.62707428
   B8             1.07000000
   B9             1.07000000
   B10            1.54000000
   B11            1.07000000
   B12            1.07000000
   B13            1.47000000
   B14            1.39179783
   B15            1.39180400
   B16            1.40175000
   B17            1.08926717
   B18            1.08923173
   B19            1.08481903
   B20            1.40184834
   B21            1.40184834
   B22            1.47000000
   B23            1.07000000
   B24            1.07000000
   B25            1.07000000
   B26            1.47000000
   B27            1.07000000
   B28            1.07000000
   B29            1.07000000
   A1            72.81540165
   A2           108.41767385
   A3           121.48471350
   A4           126.44075323
   A5           157.07629267
   A6           100.94830972
   A7           120.02210193
   A8            84.05073417
   A9           120.43020686
   A10          109.47120255
   A11          109.47123134
   A12          109.47120255
   A13          125.59658900
   A14          125.60777068
   A15          108.41767385
   A16          121.48471350
   A17          121.47420285
   A18          126.44075323
   A19           72.81159280
   A20          108.41368304
   A21          125.59658900
   A22          109.47120255
   A23          109.47120255
   A24          109.47123134
   A25          109.68083032
   A26          109.47120255
   A27          109.47120255
   A28          109.47123134
   D1            -0.00236531
   D2           179.99818719
   D3           179.99874918
   D4            -0.01666731
   D5           179.99492811
   D6            71.39577158
   D7          -179.52641851
   D8           -70.41129375
   D9            96.80841586
   D10          -23.19157674
   D11         -143.19156934
   D12           97.43492188
   D13          -82.58752184
   D14          179.98460655
   D15           -0.02108791
   D16            0.01166589
   D17          179.99874918
   D18          179.99332433
   D19         -179.98744387
   D20          179.98460655
   D21          -25.91237379
   D22           94.08764101
   D23         -145.91236639
   D24         -180.00000000
   D25         -167.19240386
   D26          -47.19238906
   D27           72.80760354






