%mem=1000mb
%chk=LiuKun1.chk LiuKun2.chk
{#p sto-3g scf=maxcycle=999} basisset=sto-3g method=HF:HF td=(root=0:root=1,nstates=5) cmd=g16 convergence=normal task=sp MECP=ln hessianN=1 stepSize=1
 
T1
 
0 1 3
 C              
 C                  1            B1
 C                  2            B2    1            A1
 C                  3            B3    2            A2    1            D1    0
 C                  4            B4    3            A3    2            D2    0
 C                  1            B5    2            A4    3            D3    0
 H                  1            B6    6            A5    5            D4    0
 H                  2            B7    1            A6    6            D5    0
 H                  3            B8    2            A7    1            D6    0
 H                  4            B9    3            A8    2            D7    0
 H                  5           B10    4            A9    3            D8    0
 H                  6           B11    1           A10    2            D9    0

   B1             1.39499068
   B2             1.39499068
   B3             1.39499068
   B4             1.39499068
   B5             1.39499068
   B6             1.09961028
   B7             1.09961028
   B8             1.09961028
   B9             1.09961028
   B10            1.09961028
   B11            1.09961028
   A1           120.00000000
   A2           120.00000000
   A3           120.00000000
   A4           120.00000000
   A5           120.00000000
   A6           120.00000000
   A7           120.00000000
   A8           120.00000000
   A9           120.00000000
   A10          120.00000000
   D1             0.00000000
   D2             0.00000000
   D3             0.00000000
   D4          -180.00000000
   D5          -180.00000000
   D6          -180.00000000
   D7          -180.00000000
   D8          -180.00000000
   D9           180.00000000


   
   