%mem=1000mb
%chk=LiuKun1.chk LiuKun2.chk
{#p sto-3g scf=maxcycle=999} method=b3lyp:HF td=(root=0:root=1,nstates=5) cmd=g16 convergence=normal task=mecp MECP=ln hessianN=1 stepSize=1
 
T1
 
0 1 3
 C              
 H                  1            B1
 H                  1            B2    2            A1
 C                  1            B3    2            A2    3            D1    0
 H                  4            B4    1            A3    2            D2    0
 H                  4            B5    1            A4    2            D3    0
 N                  4            B6    1            A5    2            D4    0
 C                  7            B7    4            A6    1            D5    0
 C                  7            B8    4            A7    1            D6    0
 C                  8            B9    7            A8    4            D7    0
 H                  8           B10    7            A9    4            D8    0
 H                  9           B11    7           A10    4            D9    0
 H                 10           B12    8           A11    7           D10    0
 N                  1           B13    4           A12    7           D11    0
 N                  9           B14    7           A13    4           D12    0
 C                 15           B15    9           A14    7           D13    0
 H                 16           B16   15           A15    9           D14    0
 H                 16           B17   15           A16    9           D15    0
 H                 16           B18   15           A17    9           D16    0
 O                  9           B19    7           A18    4           D17    0
 O                 20           B20    9           A19    7           D18    0
 O                 20           B21    9           A20    7           D19    0
 O                 21           B22   20           A21    9           D20    0
 C                 14           B23    1           A22    4           D21    0
 C                 24           B24   14           A23    1           D22    0
 H                 25           B25   24           A24   14           D23    0
 H                 25           B26   24           A25   14           D24    0
 H                 25           B27   24           A26   14           D25    0
 O                 24           B28   14           A27    1           D26    0
 H                 14           B29    1           A28    4           D27    0
 S                 21           B30   20           A29    9           D28    0

   B1             1.08829865
   B2             1.09112300
   B3             1.52817687
   B4             1.08938446
   B5             1.09039833
   B6             1.46340209
   B7             1.37955746
   B8             1.33091262
   B9             1.35702198
   B10            1.07732615
   B11            1.07792201
   B12            1.07708773
   B13            1.45047009
   B14            1.32844274
   B15            1.46143464
   B16            1.08815904
   B17            1.08719885
   B18            1.08860032
   B19            3.20717747
   B20            2.45510864
   B21            2.45044449
   B22            2.45279868
   B23            1.34448602
   B24            1.50274674
   B25            1.09129786
   B26            1.08892661
   B27            1.09127489
   B28            1.23743263
   B29            1.01040541
   B30            1.50160648
   A1           108.97658111
   A2           109.36850020
   A3           110.65652621
   A4           110.83430532
   A5           110.45539355
   A6           125.57494144
   A7           125.53083789
   A8           106.87251882
   A9           121.87948064
   A10          125.61313867
   A11          131.31612614
   A12          110.35581492
   A13          108.62315865
   A14          125.69875699
   A15          108.81296394
   A16          108.46522362
   A17          109.29641880
   A18          126.29554830
   A19          117.79480889
   A20           67.48414540
   A21           59.97828558
   A22          122.34775335
   A23          116.81420733
   A24          108.45147764
   A25          112.74477781
   A26          108.38974746
   A27          121.79775794
   A28          118.74627064
   A29           35.21078324
   D1           120.57909376
   D2            58.94234496
   D3          -179.76074760
   D4           -59.69648148
   D5           -61.57070318
   D6           112.90973785
   D7           176.47508612
   D8            -4.51843313
   D9             3.89298249
   D10          179.27002631
   D11         -179.42318436
   D12         -177.18170060
   D13          178.73163277
   D14          130.42054181
   D15           10.76806411
   D16         -109.23918274
   D17          -77.14676245
   D18           11.71479361
   D19           45.61239196
   D20          -34.22272588
   D21          -79.07745337
   D22          177.89123256
   D23          120.77844082
   D24           -0.76515627
   D25         -122.23084563
   D26           -2.65173964
   D27           95.69273020
   D28            1.10674415
   
   