%mem=1000mb
%chk=LiuKun1.chk LiuKun2.chk
{#p sto-3g scf=maxcycle=999} method=b3lyp:HF td=(root=0:root=1,nstates=5) cmd=g16 convergence=normal task=mecp MECP=ln hessianN=1 stepSize=1
 
T1
 
0 1 3
 C              
 H                  1            B1
 H                  1            B2    2            A1
 H                  1            B3    3            A2    2            D1    0
 C                  1            B4    4            A3    3            D2    0
 H                  5            B5    1            A4    4            D3    0
 H                  5            B6    1            A5    4            D4    0
 H                  5            B7    1            A6    4            D5    0

   B1             1.07000000
   B2             1.07000000
   B3             1.07000000
   B4             1.54000000
   B5             1.07000000
   B6             1.07000000
   B7             1.07000000
   A1           109.47120255
   A2           109.47121829
   A3           109.47121829
   A4           109.47120255
   A5           109.47120255
   A6           109.47123134
   D1          -120.00000060
   D2           120.00003407
   D3           -60.11109940
   D4            59.88891539
   D5           179.88890799
   
   