%mem=1000mb
%chk=LiuKun1.chk LiuKun2.chk
{#p sto-3g scf=maxcycle=999} method=b3lyp:HF td=(root=0:root=1,nstates=5) cmd=g16 convergence=normal task=mecp MECP=ln hessianN=1 stepSize=1
 
T1
 
0 1 3
 C              
 H                  1            B1
 H                  1            B2    2            A1
 H                  1            B3    2            A2    3            D1    0
 C                  1            B4    4            A3    2            D2    0
 H                  5            B5    1            A4    4            D3    0
 H                  5            B6    1            A5    4            D4    0
 H                  5            B7    1            A6    4            D5    0

   B1             1.07000032
   B2             1.07000032
   B3             1.07000032
   B4             1.54000027
   B5             1.07000032
   B6             1.07000032
   B7             1.07000032
   A1           109.47113825
   A2           109.47113825
   A3           109.47130302
   A4           109.47130302
   A5           109.47130302
   A6           109.47130302
   D1           119.99979820
   D2          -120.00010090
   D3          -120.00000000
   D4            -0.00000000
   D5           120.00000000



   
   