%mem=1000MB
%chk=LiuKun1.chk
# pm3

T1

0 1
  6        -1.208097   -0.697495    0.000000
  6        -1.208097    0.697495    0.000000
  6         0.000000    1.394991    0.000000
  6         1.208097    0.697495    0.000000
  6         1.208097   -0.697495    0.000000
  6         0.000000   -1.394991    0.000000
  1        -2.160388   -1.247300   -0.000000
  1        -2.160388    1.247300   -0.000000
  1         0.000000    2.494601   -0.000000
  1         2.160388    1.247300   -0.000000
  1         2.160388   -1.247300   -0.000000
  1         0.000000   -2.494601   -0.000000


