%mem=1000MB
%chk=LiuKun1.chk
# pm3

T1

0 1
  6        -0.088524   -0.572534   -0.507216
  1         0.415880   -1.446184   -0.150548
  1        -1.130296   -0.785747   -0.626182
  1         0.325829   -0.281274   -1.449755
  6         0.088524    0.572534    0.507216
  1        -0.871238    0.889723    0.858142
  1         0.584887    1.394196    0.034568
  1         0.674938    0.229285    1.333775


